c nombre: 33
c densidad: 0.5
p edges 90 2013
e 1 6
e 1 7
e 1 8
e 1 9
e 1 11
e 1 14
e 1 15
e 1 20
e 1 24
e 1 25
e 1 27
e 1 28
e 1 30
e 1 31
e 1 32
e 1 33
e 1 34
e 1 35
e 1 37
e 1 41
e 1 42
e 1 45
e 1 46
e 1 47
e 1 51
e 1 54
e 1 55
e 1 58
e 1 59
e 1 66
e 1 67
e 1 68
e 1 70
e 1 77
e 1 80
e 1 82
e 1 84
e 1 85
e 1 87
e 1 89
e 1 90
e 2 7
e 2 8
e 2 11
e 2 12
e 2 13
e 2 14
e 2 15
e 2 20
e 2 23
e 2 30
e 2 32
e 2 33
e 2 34
e 2 38
e 2 41
e 2 42
e 2 44
e 2 45
e 2 46
e 2 47
e 2 48
e 2 51
e 2 53
e 2 54
e 2 55
e 2 56
e 2 57
e 2 58
e 2 60
e 2 61
e 2 63
e 2 64
e 2 67
e 2 69
e 2 70
e 2 71
e 2 72
e 2 73
e 2 74
e 2 77
e 2 80
e 2 82
e 2 84
e 2 87
e 2 89
e 2 90
e 3 4
e 3 5
e 3 7
e 3 9
e 3 10
e 3 11
e 3 12
e 3 13
e 3 14
e 3 15
e 3 17
e 3 19
e 3 20
e 3 22
e 3 26
e 3 27
e 3 28
e 3 30
e 3 31
e 3 36
e 3 37
e 3 39
e 3 42
e 3 44
e 3 45
e 3 46
e 3 55
e 3 61
e 3 62
e 3 63
e 3 65
e 3 68
e 3 70
e 3 71
e 3 73
e 3 76
e 3 77
e 3 78
e 3 80
e 3 81
e 3 85
e 3 88
e 4 7
e 4 10
e 4 13
e 4 17
e 4 21
e 4 25
e 4 34
e 4 35
e 4 36
e 4 37
e 4 38
e 4 39
e 4 40
e 4 42
e 4 47
e 4 49
e 4 55
e 4 62
e 4 63
e 4 66
e 4 67
e 4 68
e 4 70
e 4 71
e 4 72
e 4 74
e 4 75
e 4 79
e 4 80
e 4 82
e 4 84
e 4 86
e 4 87
e 4 88
e 4 89
e 5 8
e 5 10
e 5 12
e 5 13
e 5 17
e 5 18
e 5 20
e 5 21
e 5 22
e 5 30
e 5 31
e 5 33
e 5 35
e 5 36
e 5 41
e 5 42
e 5 45
e 5 48
e 5 49
e 5 50
e 5 52
e 5 53
e 5 54
e 5 55
e 5 57
e 5 60
e 5 61
e 5 62
e 5 68
e 5 70
e 5 71
e 5 72
e 5 76
e 5 78
e 5 82
e 5 83
e 5 84
e 5 88
e 6 7
e 6 11
e 6 12
e 6 14
e 6 18
e 6 20
e 6 21
e 6 25
e 6 26
e 6 29
e 6 32
e 6 35
e 6 36
e 6 37
e 6 38
e 6 41
e 6 43
e 6 44
e 6 45
e 6 46
e 6 49
e 6 52
e 6 53
e 6 54
e 6 55
e 6 56
e 6 58
e 6 60
e 6 61
e 6 63
e 6 66
e 6 74
e 6 79
e 6 80
e 6 81
e 6 82
e 6 84
e 6 87
e 6 88
e 6 89
e 6 90
e 7 8
e 7 9
e 7 10
e 7 14
e 7 16
e 7 18
e 7 19
e 7 20
e 7 24
e 7 25
e 7 26
e 7 27
e 7 28
e 7 30
e 7 33
e 7 35
e 7 36
e 7 38
e 7 42
e 7 44
e 7 45
e 7 46
e 7 48
e 7 49
e 7 51
e 7 54
e 7 55
e 7 59
e 7 60
e 7 61
e 7 64
e 7 66
e 7 67
e 7 68
e 7 70
e 7 71
e 7 72
e 7 75
e 7 76
e 7 78
e 7 79
e 7 80
e 7 81
e 7 82
e 7 83
e 7 86
e 7 87
e 7 88
e 7 90
e 8 11
e 8 13
e 8 16
e 8 18
e 8 22
e 8 25
e 8 26
e 8 28
e 8 29
e 8 30
e 8 34
e 8 39
e 8 42
e 8 43
e 8 45
e 8 47
e 8 48
e 8 49
e 8 56
e 8 60
e 8 64
e 8 65
e 8 67
e 8 69
e 8 72
e 8 73
e 8 76
e 8 79
e 8 80
e 8 82
e 8 87
e 9 11
e 9 12
e 9 15
e 9 16
e 9 17
e 9 18
e 9 21
e 9 25
e 9 26
e 9 27
e 9 28
e 9 31
e 9 33
e 9 36
e 9 38
e 9 40
e 9 41
e 9 42
e 9 45
e 9 46
e 9 47
e 9 48
e 9 51
e 9 54
e 9 57
e 9 58
e 9 59
e 9 62
e 9 64
e 9 66
e 9 67
e 9 70
e 9 71
e 9 72
e 9 73
e 9 75
e 9 76
e 9 77
e 9 78
e 9 80
e 9 81
e 9 83
e 9 85
e 9 88
e 10 11
e 10 12
e 10 14
e 10 15
e 10 17
e 10 18
e 10 20
e 10 21
e 10 23
e 10 26
e 10 27
e 10 31
e 10 34
e 10 35
e 10 38
e 10 39
e 10 40
e 10 42
e 10 48
e 10 49
e 10 50
e 10 51
e 10 56
e 10 57
e 10 59
e 10 61
e 10 62
e 10 64
e 10 66
e 10 68
e 10 69
e 10 70
e 10 74
e 10 76
e 10 77
e 10 78
e 10 79
e 10 82
e 10 83
e 10 84
e 10 85
e 10 88
e 10 90
e 11 13
e 11 16
e 11 17
e 11 19
e 11 20
e 11 22
e 11 23
e 11 27
e 11 28
e 11 31
e 11 32
e 11 33
e 11 39
e 11 40
e 11 41
e 11 42
e 11 43
e 11 44
e 11 49
e 11 50
e 11 51
e 11 52
e 11 53
e 11 56
e 11 57
e 11 58
e 11 59
e 11 63
e 11 64
e 11 65
e 11 68
e 11 71
e 11 72
e 11 73
e 11 74
e 11 75
e 11 77
e 11 78
e 11 80
e 11 81
e 11 82
e 11 83
e 11 86
e 11 89
e 11 90
e 12 15
e 12 20
e 12 22
e 12 23
e 12 24
e 12 25
e 12 26
e 12 29
e 12 31
e 12 32
e 12 34
e 12 36
e 12 39
e 12 41
e 12 42
e 12 43
e 12 44
e 12 45
e 12 48
e 12 49
e 12 50
e 12 51
e 12 55
e 12 56
e 12 57
e 12 61
e 12 62
e 12 64
e 12 65
e 12 67
e 12 68
e 12 69
e 12 70
e 12 71
e 12 77
e 12 78
e 12 80
e 12 82
e 12 83
e 12 84
e 12 86
e 12 88
e 12 90
e 13 15
e 13 16
e 13 18
e 13 20
e 13 21
e 13 22
e 13 24
e 13 26
e 13 28
e 13 33
e 13 36
e 13 38
e 13 39
e 13 40
e 13 42
e 13 43
e 13 44
e 13 45
e 13 46
e 13 49
e 13 51
e 13 52
e 13 56
e 13 60
e 13 61
e 13 62
e 13 63
e 13 64
e 13 69
e 13 70
e 13 71
e 13 73
e 13 74
e 13 77
e 13 80
e 13 81
e 13 83
e 13 86
e 13 87
e 13 88
e 14 18
e 14 19
e 14 21
e 14 23
e 14 24
e 14 26
e 14 28
e 14 34
e 14 37
e 14 38
e 14 41
e 14 43
e 14 44
e 14 48
e 14 54
e 14 55
e 14 59
e 14 60
e 14 64
e 14 65
e 14 67
e 14 69
e 14 71
e 14 76
e 14 77
e 14 78
e 14 80
e 14 81
e 14 82
e 14 83
e 14 84
e 14 86
e 14 88
e 14 89
e 15 17
e 15 19
e 15 21
e 15 22
e 15 27
e 15 28
e 15 29
e 15 33
e 15 34
e 15 35
e 15 37
e 15 38
e 15 39
e 15 40
e 15 41
e 15 44
e 15 48
e 15 49
e 15 50
e 15 52
e 15 55
e 15 56
e 15 57
e 15 59
e 15 60
e 15 61
e 15 66
e 15 68
e 15 69
e 15 73
e 15 74
e 15 76
e 15 77
e 15 79
e 15 80
e 15 81
e 15 85
e 15 87
e 15 89
e 16 24
e 16 26
e 16 28
e 16 36
e 16 37
e 16 42
e 16 44
e 16 46
e 16 49
e 16 50
e 16 57
e 16 58
e 16 60
e 16 61
e 16 64
e 16 66
e 16 67
e 16 69
e 16 70
e 16 72
e 16 73
e 16 74
e 16 75
e 16 76
e 16 78
e 16 81
e 16 83
e 16 84
e 16 85
e 16 86
e 16 88
e 17 18
e 17 20
e 17 21
e 17 27
e 17 28
e 17 29
e 17 30
e 17 31
e 17 34
e 17 35
e 17 37
e 17 38
e 17 40
e 17 41
e 17 42
e 17 43
e 17 47
e 17 48
e 17 49
e 17 55
e 17 57
e 17 58
e 17 60
e 17 62
e 17 64
e 17 66
e 17 68
e 17 69
e 17 71
e 17 72
e 17 73
e 17 74
e 17 75
e 17 77
e 17 78
e 17 79
e 17 81
e 17 82
e 17 83
e 17 86
e 18 24
e 18 27
e 18 30
e 18 31
e 18 34
e 18 36
e 18 37
e 18 38
e 18 41
e 18 43
e 18 45
e 18 46
e 18 47
e 18 48
e 18 50
e 18 52
e 18 56
e 18 57
e 18 60
e 18 61
e 18 63
e 18 65
e 18 67
e 18 68
e 18 69
e 18 72
e 18 74
e 18 75
e 18 76
e 18 79
e 18 80
e 18 86
e 19 20
e 19 21
e 19 23
e 19 26
e 19 27
e 19 28
e 19 29
e 19 31
e 19 34
e 19 37
e 19 39
e 19 40
e 19 42
e 19 44
e 19 47
e 19 50
e 19 54
e 19 57
e 19 63
e 19 65
e 19 66
e 19 68
e 19 72
e 19 74
e 19 76
e 19 77
e 19 79
e 19 80
e 19 87
e 19 88
e 19 89
e 19 90
e 20 22
e 20 23
e 20 24
e 20 25
e 20 26
e 20 27
e 20 30
e 20 31
e 20 33
e 20 35
e 20 37
e 20 38
e 20 41
e 20 43
e 20 44
e 20 45
e 20 46
e 20 50
e 20 52
e 20 55
e 20 57
e 20 59
e 20 60
e 20 62
e 20 64
e 20 65
e 20 69
e 20 71
e 20 73
e 20 77
e 20 79
e 20 82
e 20 85
e 20 86
e 20 87
e 20 88
e 20 90
e 21 23
e 21 27
e 21 28
e 21 29
e 21 30
e 21 32
e 21 33
e 21 34
e 21 36
e 21 37
e 21 38
e 21 39
e 21 46
e 21 48
e 21 50
e 21 52
e 21 54
e 21 55
e 21 58
e 21 59
e 21 60
e 21 61
e 21 65
e 21 66
e 21 67
e 21 68
e 21 69
e 21 70
e 21 71
e 21 72
e 21 73
e 21 76
e 21 77
e 21 79
e 21 82
e 21 87
e 21 89
e 21 90
e 22 23
e 22 25
e 22 27
e 22 28
e 22 29
e 22 30
e 22 36
e 22 37
e 22 38
e 22 40
e 22 43
e 22 45
e 22 46
e 22 48
e 22 52
e 22 53
e 22 54
e 22 57
e 22 60
e 22 61
e 22 64
e 22 65
e 22 66
e 22 67
e 22 68
e 22 72
e 22 75
e 22 76
e 22 79
e 22 82
e 22 84
e 22 85
e 22 89
e 23 26
e 23 29
e 23 33
e 23 37
e 23 39
e 23 46
e 23 50
e 23 52
e 23 53
e 23 54
e 23 55
e 23 56
e 23 60
e 23 63
e 23 64
e 23 65
e 23 70
e 23 72
e 23 73
e 23 74
e 23 77
e 23 78
e 23 80
e 23 81
e 23 82
e 23 83
e 23 86
e 23 88
e 23 89
e 24 27
e 24 34
e 24 36
e 24 37
e 24 40
e 24 42
e 24 44
e 24 45
e 24 46
e 24 47
e 24 48
e 24 50
e 24 53
e 24 56
e 24 57
e 24 58
e 24 60
e 24 61
e 24 62
e 24 65
e 24 67
e 24 70
e 24 71
e 24 72
e 24 73
e 24 75
e 24 76
e 24 84
e 24 85
e 24 87
e 24 90
e 25 26
e 25 31
e 25 33
e 25 35
e 25 36
e 25 37
e 25 41
e 25 42
e 25 49
e 25 50
e 25 51
e 25 53
e 25 54
e 25 57
e 25 58
e 25 59
e 25 60
e 25 61
e 25 62
e 25 64
e 25 65
e 25 66
e 25 68
e 25 70
e 25 73
e 25 76
e 25 77
e 25 78
e 25 80
e 25 81
e 25 83
e 25 87
e 25 89
e 25 90
e 26 27
e 26 28
e 26 29
e 26 32
e 26 33
e 26 34
e 26 37
e 26 38
e 26 40
e 26 42
e 26 43
e 26 46
e 26 47
e 26 48
e 26 53
e 26 54
e 26 57
e 26 62
e 26 63
e 26 65
e 26 69
e 26 70
e 26 71
e 26 72
e 26 74
e 26 75
e 26 81
e 26 82
e 26 83
e 26 86
e 26 87
e 26 88
e 26 89
e 26 90
e 27 30
e 27 31
e 27 34
e 27 38
e 27 40
e 27 42
e 27 44
e 27 46
e 27 48
e 27 50
e 27 52
e 27 53
e 27 56
e 27 57
e 27 59
e 27 60
e 27 61
e 27 62
e 27 64
e 27 66
e 27 69
e 27 70
e 27 72
e 27 73
e 27 74
e 27 76
e 27 79
e 27 80
e 27 81
e 27 82
e 27 84
e 27 85
e 27 86
e 27 87
e 27 88
e 27 90
e 28 29
e 28 32
e 28 33
e 28 34
e 28 37
e 28 38
e 28 39
e 28 40
e 28 44
e 28 46
e 28 48
e 28 51
e 28 52
e 28 54
e 28 58
e 28 59
e 28 60
e 28 61
e 28 63
e 28 65
e 28 66
e 28 67
e 28 68
e 28 69
e 28 70
e 28 71
e 28 73
e 28 75
e 28 77
e 28 79
e 28 82
e 28 83
e 28 87
e 28 89
e 29 32
e 29 33
e 29 34
e 29 35
e 29 36
e 29 37
e 29 41
e 29 42
e 29 44
e 29 47
e 29 48
e 29 50
e 29 52
e 29 53
e 29 54
e 29 55
e 29 56
e 29 59
e 29 61
e 29 64
e 29 66
e 29 68
e 29 70
e 29 71
e 29 74
e 29 76
e 29 77
e 29 78
e 29 81
e 29 83
e 29 85
e 29 86
e 30 31
e 30 34
e 30 35
e 30 36
e 30 37
e 30 40
e 30 41
e 30 42
e 30 43
e 30 45
e 30 46
e 30 47
e 30 48
e 30 49
e 30 51
e 30 53
e 30 54
e 30 55
e 30 56
e 30 59
e 30 60
e 30 61
e 30 63
e 30 67
e 30 68
e 30 70
e 30 71
e 30 73
e 30 74
e 30 79
e 30 81
e 30 82
e 30 83
e 30 84
e 30 86
e 30 88
e 31 33
e 31 34
e 31 38
e 31 39
e 31 42
e 31 43
e 31 47
e 31 48
e 31 49
e 31 51
e 31 53
e 31 55
e 31 59
e 31 61
e 31 66
e 31 73
e 31 75
e 31 76
e 31 77
e 31 79
e 31 87
e 31 88
e 31 89
e 32 33
e 32 35
e 32 37
e 32 39
e 32 42
e 32 44
e 32 46
e 32 48
e 32 49
e 32 50
e 32 51
e 32 56
e 32 58
e 32 59
e 32 60
e 32 64
e 32 65
e 32 70
e 32 72
e 32 73
e 32 75
e 32 78
e 32 79
e 32 80
e 32 82
e 32 90
e 33 37
e 33 39
e 33 42
e 33 47
e 33 49
e 33 50
e 33 51
e 33 53
e 33 54
e 33 55
e 33 57
e 33 59
e 33 62
e 33 64
e 33 69
e 33 70
e 33 72
e 33 73
e 33 74
e 33 76
e 33 77
e 33 80
e 33 83
e 33 84
e 33 85
e 33 90
e 34 37
e 34 38
e 34 44
e 34 46
e 34 47
e 34 50
e 34 51
e 34 53
e 34 55
e 34 56
e 34 58
e 34 59
e 34 61
e 34 62
e 34 65
e 34 66
e 34 67
e 34 69
e 34 72
e 34 73
e 34 74
e 34 75
e 34 76
e 34 79
e 34 80
e 34 82
e 34 83
e 34 84
e 34 86
e 34 87
e 34 88
e 35 36
e 35 41
e 35 45
e 35 47
e 35 49
e 35 51
e 35 52
e 35 53
e 35 62
e 35 63
e 35 64
e 35 65
e 35 67
e 35 68
e 35 69
e 35 70
e 35 72
e 35 75
e 35 76
e 35 77
e 35 78
e 35 80
e 35 81
e 35 83
e 35 84
e 35 86
e 35 87
e 35 88
e 35 90
e 36 37
e 36 39
e 36 40
e 36 43
e 36 47
e 36 49
e 36 51
e 36 52
e 36 53
e 36 54
e 36 57
e 36 61
e 36 62
e 36 64
e 36 67
e 36 69
e 36 71
e 36 73
e 36 74
e 36 76
e 36 77
e 36 79
e 36 80
e 36 82
e 36 83
e 36 84
e 36 86
e 36 88
e 37 38
e 37 39
e 37 42
e 37 47
e 37 48
e 37 50
e 37 52
e 37 54
e 37 55
e 37 57
e 37 60
e 37 63
e 37 66
e 37 68
e 37 69
e 37 71
e 37 72
e 37 73
e 37 77
e 37 79
e 37 80
e 37 86
e 38 39
e 38 41
e 38 42
e 38 43
e 38 46
e 38 47
e 38 48
e 38 50
e 38 51
e 38 53
e 38 54
e 38 56
e 38 57
e 38 60
e 38 61
e 38 62
e 38 63
e 38 64
e 38 67
e 38 68
e 38 69
e 38 70
e 38 74
e 38 77
e 38 80
e 38 81
e 38 83
e 38 84
e 38 85
e 38 87
e 38 88
e 38 89
e 38 90
e 39 40
e 39 42
e 39 43
e 39 46
e 39 47
e 39 48
e 39 50
e 39 51
e 39 52
e 39 53
e 39 54
e 39 59
e 39 62
e 39 63
e 39 65
e 39 67
e 39 69
e 39 70
e 39 74
e 39 79
e 39 80
e 39 81
e 39 82
e 39 84
e 39 85
e 39 87
e 39 88
e 39 89
e 40 41
e 40 42
e 40 44
e 40 45
e 40 46
e 40 48
e 40 56
e 40 59
e 40 62
e 40 64
e 40 66
e 40 67
e 40 69
e 40 72
e 40 79
e 40 81
e 40 83
e 40 84
e 40 86
e 40 88
e 41 46
e 41 49
e 41 50
e 41 51
e 41 55
e 41 57
e 41 58
e 41 59
e 41 61
e 41 62
e 41 63
e 41 64
e 41 69
e 41 78
e 41 80
e 41 86
e 41 87
e 41 88
e 42 46
e 42 50
e 42 52
e 42 53
e 42 54
e 42 56
e 42 57
e 42 61
e 42 62
e 42 65
e 42 69
e 42 70
e 42 77
e 42 79
e 42 80
e 42 81
e 42 83
e 42 84
e 42 85
e 42 86
e 42 88
e 42 90
e 43 44
e 43 47
e 43 49
e 43 50
e 43 52
e 43 53
e 43 55
e 43 56
e 43 58
e 43 59
e 43 61
e 43 64
e 43 67
e 43 68
e 43 69
e 43 72
e 43 73
e 43 74
e 43 76
e 43 77
e 43 80
e 43 83
e 43 84
e 43 85
e 43 88
e 44 49
e 44 50
e 44 51
e 44 53
e 44 55
e 44 59
e 44 62
e 44 63
e 44 65
e 44 66
e 44 67
e 44 71
e 44 74
e 44 78
e 44 79
e 44 80
e 44 81
e 44 83
e 44 85
e 44 86
e 44 88
e 45 49
e 45 50
e 45 51
e 45 52
e 45 53
e 45 54
e 45 55
e 45 56
e 45 59
e 45 61
e 45 64
e 45 66
e 45 69
e 45 70
e 45 72
e 45 75
e 45 79
e 45 83
e 45 84
e 45 85
e 45 89
e 46 49
e 46 51
e 46 52
e 46 57
e 46 59
e 46 60
e 46 62
e 46 64
e 46 65
e 46 66
e 46 67
e 46 68
e 46 69
e 46 71
e 46 72
e 46 73
e 46 74
e 46 75
e 46 76
e 46 78
e 46 79
e 46 82
e 46 83
e 46 84
e 46 85
e 46 88
e 47 49
e 47 50
e 47 51
e 47 52
e 47 53
e 47 56
e 47 58
e 47 61
e 47 63
e 47 66
e 47 67
e 47 70
e 47 76
e 47 77
e 47 80
e 47 81
e 47 82
e 47 84
e 47 88
e 48 50
e 48 51
e 48 52
e 48 53
e 48 55
e 48 56
e 48 59
e 48 60
e 48 65
e 48 66
e 48 67
e 48 69
e 48 72
e 48 74
e 48 77
e 48 79
e 48 80
e 48 83
e 48 84
e 48 87
e 48 88
e 48 89
e 49 50
e 49 51
e 49 52
e 49 53
e 49 56
e 49 57
e 49 58
e 49 62
e 49 64
e 49 65
e 49 67
e 49 72
e 49 73
e 49 74
e 49 75
e 49 77
e 49 78
e 49 81
e 49 82
e 49 83
e 49 85
e 49 87
e 49 88
e 50 51
e 50 53
e 50 54
e 50 56
e 50 58
e 50 59
e 50 61
e 50 62
e 50 63
e 50 64
e 50 65
e 50 66
e 50 69
e 50 71
e 50 74
e 50 75
e 50 76
e 50 77
e 50 80
e 50 85
e 50 87
e 50 88
e 50 89
e 51 53
e 51 54
e 51 56
e 51 60
e 51 66
e 51 67
e 51 69
e 51 71
e 51 72
e 51 73
e 51 74
e 51 75
e 51 76
e 51 77
e 51 79
e 51 80
e 51 85
e 51 87
e 51 89
e 51 90
e 52 54
e 52 56
e 52 58
e 52 60
e 52 65
e 52 67
e 52 68
e 52 70
e 52 71
e 52 72
e 52 73
e 52 75
e 52 76
e 52 78
e 52 80
e 52 82
e 52 83
e 52 87
e 52 88
e 52 89
e 53 54
e 53 55
e 53 57
e 53 58
e 53 60
e 53 61
e 53 64
e 53 66
e 53 69
e 53 70
e 53 72
e 53 73
e 53 75
e 53 76
e 53 77
e 53 78
e 53 80
e 53 82
e 53 83
e 53 84
e 53 88
e 54 55
e 54 57
e 54 58
e 54 59
e 54 60
e 54 61
e 54 62
e 54 63
e 54 64
e 54 65
e 54 66
e 54 69
e 54 70
e 54 71
e 54 72
e 54 74
e 54 75
e 54 76
e 54 79
e 54 80
e 54 81
e 54 82
e 54 84
e 54 87
e 54 88
e 55 60
e 55 61
e 55 63
e 55 66
e 55 67
e 55 68
e 55 69
e 55 70
e 55 72
e 55 75
e 55 76
e 55 77
e 55 80
e 55 82
e 55 83
e 55 87
e 55 90
e 56 59
e 56 60
e 56 62
e 56 65
e 56 67
e 56 71
e 56 72
e 56 73
e 56 74
e 56 78
e 56 79
e 56 80
e 56 81
e 56 83
e 56 87
e 56 88
e 56 90
e 57 58
e 57 60
e 57 67
e 57 69
e 57 70
e 57 73
e 57 74
e 57 75
e 57 77
e 57 80
e 57 86
e 57 90
e 58 59
e 58 61
e 58 63
e 58 64
e 58 65
e 58 68
e 58 70
e 58 71
e 58 74
e 58 75
e 58 76
e 58 78
e 58 83
e 58 84
e 58 87
e 58 89
e 58 90
e 59 60
e 59 61
e 59 62
e 59 64
e 59 66
e 59 67
e 59 68
e 59 71
e 59 73
e 59 74
e 59 75
e 59 77
e 59 79
e 59 81
e 59 83
e 59 88
e 59 89
e 59 90
e 60 64
e 60 66
e 60 67
e 60 68
e 60 69
e 60 70
e 60 72
e 60 74
e 60 76
e 60 77
e 60 78
e 60 80
e 60 82
e 60 83
e 60 86
e 61 62
e 61 63
e 61 64
e 61 66
e 61 67
e 61 68
e 61 69
e 61 70
e 61 71
e 61 72
e 61 73
e 61 75
e 61 76
e 61 79
e 61 81
e 61 84
e 61 85
e 61 87
e 62 63
e 62 64
e 62 65
e 62 66
e 62 69
e 62 70
e 62 74
e 62 75
e 62 77
e 62 79
e 62 80
e 62 81
e 62 88
e 62 90
e 63 65
e 63 69
e 63 70
e 63 71
e 63 72
e 63 74
e 63 76
e 63 78
e 63 82
e 63 88
e 63 89
e 63 90
e 64 65
e 64 66
e 64 68
e 64 71
e 64 73
e 64 74
e 64 77
e 64 79
e 64 80
e 64 82
e 64 86
e 64 87
e 64 90
e 65 66
e 65 67
e 65 68
e 65 69
e 65 70
e 65 71
e 65 73
e 65 76
e 65 78
e 65 80
e 65 81
e 65 82
e 65 83
e 65 89
e 65 90
e 66 68
e 66 70
e 66 74
e 66 75
e 66 76
e 66 77
e 66 78
e 66 81
e 66 83
e 66 89
e 66 90
e 67 71
e 67 75
e 67 80
e 67 83
e 67 84
e 67 85
e 67 87
e 67 88
e 68 69
e 68 71
e 68 72
e 68 74
e 68 75
e 68 78
e 68 80
e 68 81
e 68 82
e 68 83
e 68 85
e 68 88
e 68 90
e 69 71
e 69 72
e 69 73
e 69 74
e 69 75
e 69 76
e 69 81
e 69 83
e 69 85
e 69 86
e 69 88
e 70 74
e 70 75
e 70 76
e 70 78
e 70 79
e 70 80
e 70 81
e 70 82
e 70 83
e 71 72
e 71 73
e 71 74
e 71 77
e 71 79
e 71 81
e 71 83
e 71 84
e 71 87
e 71 88
e 71 89
e 72 73
e 72 74
e 72 78
e 72 79
e 72 81
e 72 85
e 72 87
e 72 89
e 72 90
e 73 74
e 73 76
e 73 77
e 73 79
e 73 80
e 73 81
e 73 84
e 73 85
e 73 86
e 73 89
e 73 90
e 74 76
e 74 78
e 74 80
e 74 81
e 74 83
e 74 86
e 74 87
e 74 89
e 75 76
e 75 79
e 75 82
e 75 83
e 75 84
e 75 88
e 75 90
e 76 77
e 76 82
e 76 84
e 76 86
e 77 78
e 77 79
e 77 83
e 77 87
e 77 88
e 77 89
e 78 79
e 78 81
e 78 82
e 78 84
e 78 85
e 78 86
e 78 90
e 79 81
e 79 82
e 79 85
e 79 87
e 79 88
e 79 90
e 80 81
e 80 82
e 80 83
e 80 85
e 80 86
e 80 87
e 81 82
e 81 83
e 81 85
e 81 86
e 81 88
e 81 89
e 82 83
e 82 85
e 82 87
e 82 90
e 83 84
e 83 87
e 83 88
e 84 85
e 84 86
e 84 87
e 84 88
e 84 89
e 85 86
e 85 87
e 86 87
e 86 90
e 87 88
e 87 89
e 87 90
e 88 89
